50
12537

977 732
568 137
757 923
611 329
625 251
696 910
446 31
200 40
867 786
472 865
312 987
768 167
169 201
325 124
415 434
257 728
241 790
622 525
760 856
321 813
331 77
768 852
30 875
187 338
385 760
256 146
59 978
866 327
328 347
12 262
870 328
813 136
773 308
678 2
544 414
80 387
846 816
241 428
880 246
524 619
81 498
597 987
50 357
15 425
438 984
39 313
323 682
381 465
953 495
229 947
